c preprocessed version of dimacs_queen9_9, 79 vertices, 959 edges
p td 79 959
0 1
0 23
0 24
0 43
0 44
0 52
0 3
0 5
0 7
0 9
0 11
0 13
0 15
0 17
0 2
0 19
0 35
0 37
0 54
0 53
0 67
2 1
3 1
5 1
1 23
1 24
1 43
1 44
1 52
1 19
1 4
1 6
1 8
1 10
1 12
1 14
1 16
1 21
1 20
1 36
1 38
1 55
1 68
3 2
2 21
2 22
2 41
2 42
2 62
2 63
2 4
2 6
2 8
2 10
2 12
2 14
2 16
2 19
2 35
2 37
2 54
2 53
2 67
3 4
3 25
3 26
3 45
3 46
3 64
3 65
3 5
3 7
3 9
3 11
3 13
3 15
3 17
3 21
3 20
3 36
3 38
3 55
3 68
5 4
7 4
4 25
4 26
4 45
4 46
4 64
4 65
4 21
4 35
4 6
4 8
4 10
4 12
4 14
4 16
4 23
4 22
4 39
4 56
4 58
4 69
5 6
5 19
5 23
5 27
5 28
5 47
5 48
5 66
5 7
5 9
5 11
5 13
5 15
5 17
5 22
5 39
5 56
5 58
5 69
7 6
9 6
6 27
6 28
6 47
6 48
6 66
6 23
6 20
6 37
6 8
6 10
6 12
6 14
6 16
6 25
6 24
6 41
6 40
6 57
6 59
7 8
7 21
7 25
7 29
7 35
7 24
7 30
7 49
7 50
7 9
7 11
7 13
7 15
7 17
7 41
7 40
7 57
7 59
9 8
11 8
8 29
8 30
8 49
8 50
8 25
8 22
8 36
8 54
8 10
8 12
8 14
8 16
8 27
8 26
8 43
8 42
8 60
8 70
9 10
9 23
9 27
9 18
9 20
9 26
9 34
9 37
9 43
9 51
9 11
9 13
9 15
9 17
9 42
9 60
9 70
11 10
13 10
10 18
10 34
10 51
10 27
10 24
10 39
10 38
10 53
10 12
10 14
10 16
10 29
10 28
10 45
10 44
10 62
10 61
11 12
11 25
11 29
11 31
11 22
11 28
11 32
11 36
11 45
11 54
11 44
11 13
11 15
11 17
11 62
11 61
13 12
15 12
12 31
12 32
12 29
12 26
12 41
12 56
12 55
12 67
12 14
12 16
12 18
12 30
12 47
12 46
12 52
12 63
13 14
13 27
13 18
13 33
13 24
13 30
13 39
13 47
13 38
13 46
13 53
13 52
13 15
13 17
13 63
15 14
17 14
14 33
14 18
14 28
14 43
14 40
14 58
14 68
14 16
14 31
14 34
14 49
14 48
14 64
15 16
15 29
15 31
15 26
15 34
15 41
15 49
15 56
15 48
15 55
15 64
15 67
15 17
17 16
16 31
16 30
16 45
16 42
16 57
16 69
16 33
16 32
16 51
16 50
16 66
16 65
17 18
17 33
17 28
17 32
17 43
17 51
17 40
17 50
17 58
17 66
17 68
17 65
19 18
21 18
23 18
25 18
27 18
29 18
18 34
18 51
18 28
18 43
18 40
18 58
18 68
18 31
18 33
18 30
18 47
18 46
18 52
18 63
19 20
19 39
19 40
19 60
19 61
19 21
19 23
19 25
19 27
19 29
19 31
19 33
19 35
19 37
19 54
19 53
19 67
21 20
23 20
35 20
20 39
20 40
20 60
20 61
20 37
20 22
20 24
20 26
20 28
20 30
20 34
20 32
20 36
20 38
20 55
20 68
21 22
21 41
21 42
21 62
21 63
21 35
21 23
21 25
21 27
21 29
21 31
21 33
21 36
21 38
21 55
21 68
23 22
25 22
35 22
22 41
22 42
22 62
22 63
22 36
22 54
22 24
22 26
22 28
22 30
22 34
22 32
22 39
22 56
22 58
22 69
23 24
23 43
23 44
23 52
23 37
23 25
23 27
23 29
23 31
23 33
23 39
23 56
23 58
23 69
25 24
27 24
35 24
24 43
24 44
24 52
24 39
24 38
24 53
24 26
24 28
24 30
24 34
24 32
24 41
24 40
24 57
24 59
25 26
25 45
25 46
25 64
25 65
25 36
25 54
25 27
25 29
25 31
25 33
25 41
25 40
25 57
25 59
27 26
29 26
35 26
26 45
26 46
26 64
26 65
26 41
26 56
26 55
26 67
26 28
26 30
26 34
26 32
26 43
26 42
26 60
26 70
27 28
27 47
27 48
27 66
27 39
27 38
27 53
27 29
27 31
27 33
27 43
27 42
27 60
27 70
29 28
35 28
28 47
28 48
28 66
28 43
28 40
28 58
28 68
28 30
28 34
28 32
28 45
28 44
28 62
28 61
29 30
29 49
29 50
29 41
29 56
29 55
29 67
29 31
29 33
29 45
29 44
29 62
29 61
31 30
35 30
30 49
30 50
30 45
30 42
30 57
30 69
30 34
30 32
30 47
30 46
30 52
30 63
31 32
31 45
31 42
31 57
31 69
31 33
31 34
31 49
31 48
31 64
33 32
35 32
34 32
32 49
32 46
32 62
32 70
32 51
32 50
32 66
32 65
33 34
33 47
33 44
33 60
33 59
33 51
33 50
33 66
33 65
35 34
34 51
34 47
34 44
34 60
34 59
34 49
34 48
34 64
35 36
35 56
35 57
35 70
35 37
35 54
35 53
35 67
37 36
36 56
36 57
36 70
36 54
36 39
36 41
36 43
36 45
36 47
36 49
36 51
36 38
36 55
36 68
37 38
37 58
37 59
37 39
37 41
37 43
37 45
37 47
37 49
37 51
37 54
37 53
37 67
39 38
54 38
38 58
38 59
38 53
38 56
38 40
38 42
38 44
38 46
38 48
38 50
38 55
38 68
39 40
39 60
39 61
39 53
39 41
39 43
39 45
39 47
39 49
39 51
39 56
39 58
39 69
41 40
43 40
54 40
56 40
40 60
40 61
40 58
40 68
40 42
40 44
40 46
40 48
40 50
40 57
40 59
41 42
41 62
41 63
41 56
41 55
41 67
41 43
41 45
41 47
41 49
41 51
41 57
41 59
43 42
45 42
54 42
56 42
42 62
42 63
42 57
42 69
42 44
42 46
42 48
42 50
42 60
42 70
43 44
43 52
43 58
43 68
43 45
43 47
43 49
43 51
43 60
43 70
45 44
47 44
54 44
56 44
44 52
44 60
44 59
44 46
44 48
44 50
44 62
44 61
45 46
45 64
45 65
45 57
45 69
45 47
45 49
45 51
45 62
45 61
47 46
49 46
54 46
56 46
46 64
46 65
46 62
46 70
46 48
46 50
46 52
46 63
47 48
47 66
47 60
47 59
47 49
47 51
47 52
47 63
49 48
51 48
54 48
56 48
48 66
48 52
48 61
48 50
48 64
49 50
49 62
49 70
49 51
49 64
51 50
54 50
56 50
50 64
50 63
50 66
50 65
51 52
51 61
51 66
51 65
53 52
55 52
58 52
57 52
60 52
62 52
52 61
52 64
52 66
52 63
54 53
53 68
53 55
53 58
53 57
53 60
53 62
53 64
53 66
53 67
54 55
54 69
54 56
54 67
56 55
55 69
55 67
55 58
55 57
55 60
55 62
55 64
55 66
55 68
56 57
56 70
56 67
56 58
56 69
58 57
57 70
57 69
57 60
57 62
57 64
57 66
57 59
58 59
58 68
58 60
58 62
58 64
58 66
58 69
60 59
67 59
68 59
69 59
59 70
59 61
59 63
59 65
60 61
60 62
60 64
60 66
60 70
62 61
67 61
68 61
69 61
70 61
61 63
61 65
62 63
62 70
62 64
62 66
64 63
67 63
68 63
69 63
70 63
63 65
64 65
64 66
66 65
67 65
68 65
69 65
70 65
67 68
67 69
67 70
68 69
68 70
69 70
71 3
71 4
71 25
71 26
71 45
71 46
71 64
71 65
71 72
71 73
71 74
71 75
71 76
71 77
71 0
71 2
71 19
71 35
71 37
71 54
71 53
71 67
72 6
72 27
72 28
72 47
72 48
72 66
72 73
72 74
72 75
72 76
72 77
72 1
72 21
72 20
72 36
72 38
72 55
72 68
73 29
73 30
73 49
73 50
73 74
73 75
73 76
73 77
73 23
73 22
73 39
73 56
73 58
73 69
74 34
74 51
74 75
74 76
74 77
74 24
74 41
74 40
74 57
74 59
75 76
75 77
75 43
75 42
75 60
75 70
76 77
76 44
76 62
76 61
77 52
77 63
78 71
78 72
78 73
78 74
78 75
78 76
78 77
78 0
78 1
78 14
78 15
78 23
78 24
78 31
78 34
78 43
78 44
78 48
78 49
78 52
78 59
78 61
78 63
78 64
78 65
78 66
78 67
78 68
78 69
78 70
